submitit INFO (2023-05-03 20:53:25,526) - Starting with JobEnvironment(job_id=27786, hostname=cpunode2, local_rank=3(5), node=0(1), global_rank=3(5))
submitit INFO (2023-05-03 20:53:25,527) - Loading pickle: /h/30/pashootan/Matrix-Mult-CP/src/../logs/5/3x3x3_23_May03_20:53:22/27786_submitted.pkl
Running with: Namespace(N=3, M=3, P=3, R=23, valid_ineq=False, symmetry=False, min_add=False, cyclic_invar=True, inex_bounds=[9, 10], output_dir='../logs/5/3x3x3_23_May03_20:53:22', n_seeds=5, n_workers=20, timeout=2880, solver='cpo', cpo_LogPeriod=10000000, cpo_RandomSeed=4, inexact_ineq=True)
Running solver with: {'LogPeriod': 10000000, 'RandomSeed': 4, 'Workers': 20, 'TimeLimit': 172800}
 ! --------------------------------------------------- CP Optimizer 22.1.1.0 --
 ! Satisfiability problem - 207 variables, 761 constraints
 ! TimeLimit            = 172800
 ! Workers              = 20
 ! LogPeriod            = 10000000
 ! RandomSeed           = 8005
 ! Initial process time : 0.09s (0.09s extraction + 0.00s propagation)
 !  . Log search space  : 328.1 (before), 328.1 (after)
 !  . Memory usage      : 5.5 MB (before), 5.5 MB (after)
 ! Using parallel search with 20 workers.
 ! ----------------------------------------------------------------------------
 !               Branches  Non-fixed    W       Branch decision
                   10000k          4    6        -1  = A8_0
                   10000k          5    2   F     0  = B0_5
                   10000k          6    4         1 != B3_3
                   10000k          3   13   F    -1 != C3_0
                   10000k          5    1   F    -1  = C5_0
                   10000k          4   17         1 != A3_3
                   10000k          5    5         0  = D1_2
                   10000k          5    9         1 != C2_4
                   10000k         29    7         0  = C8_4
                   10000k         29   19         1 != C1_1
                   10000k         19   15   F    -1 != B3_0
                   10000k         23    3   F     0 != D3_1
                   10000k         21   11         0 != C3_5
                   10000k         25   16        -1 != C1_3
                   10000k         20   10        -1 != A1_1
                   10000k         21   12        -1 != B6_0
                   10000k         14    8        -1 != B0_5
                   10000k         19   20   F    -1  = C5_2
                   10000k         15   14   F     1  = C5_1
                   10000k         13   18         1 != A6_3
 ! Time = 2019.27s, Average fail depth = 20, Memory usage = 161.5 MB
 !               Branches  Non-fixed    W       Branch decision
                   20000k          4    6         1 != B0_0
                   20000k          4   17   F     0 != D2_2
                   20000k          5    2         0 != D8_0
                   20000k          3   13         1  = D8_2
                   20000k          5    1         0  = B5_0
                   20000k          5    9        -1 != B2_0
                   20000k          5    4         1  = B2_1
                   20000k          5    5        -1 != A3_1
                   20000k         54   19   F    -1 != D2_1
                   20000k         43    3        -1 != C7_4
                   20000k         23    7         1  = D5_4
                   20000k         22   15   F     1  = C1_3
                   20000k         26   11        -1  = C0_0
                   20000k         37   16        -1 != B3_0
                   20000k         38   10        -1 != C1_3
                   20000k         16   12         0  = B3_4
                   20000k         11    8        -1 != B0_0
                   20000k         42   20            -
                   20000k         35   18         0 != D0_4
                   20000k         39   14   F     0  = D1_2
 ! Time = 3744.22s, Average fail depth = 20, Memory usage = 161.5 MB
 !               Branches  Non-fixed    W       Branch decision
                   30000k          3   13         0 != A2_2
                   30000k          5    1        -1 != A2_4
                   30000k          4    9   F     0  = B3_3
                   30000k          4    6   F    -1 != A2_0
                   30000k          5    2   F    -1  = A2_3
                   30000k          5    4        -1 != D7_1
                   30000k          4   17        -1 != C7_1
                   30000k          5    5        -1 != D3_4
                   30000k         39   19         0  = C0_5
                   30000k         39    3        -1 != D0_5
                   30000k         15    7         1 != A4_4
                   30000k         43   15   F     0  = A1_2
                   30000k         38   11   F     0 != D3_2
                   30000k         43   10   F    -1  = C2_3
                   30000k         20   16   F     1 != C1_2
                   30000k         17   12         1 != B3_3
                   30000k          8    8   F     1  = A5_0
                   30000k         44   20   F     1  = C5_2
                   30000k         40   18   F     1  = C0_4
                   30000k         39   14   F     1  = C6_3
 ! Time = 5420.89s, Average fail depth = 20, Memory usage = 161.5 MB
 !               Branches  Non-fixed    W       Branch decision
                   40000k          5    1   F     0  = B4_3
                   40000k          4    9   F     1 != B4_5
                   40000k          5    2   F     1  = A8_4
                   40000k          3   13         0 != D1_1
                   40000k          4    6         0 != A2_1
                   40000k          5    4   F     0  = D1_3
                   40000k          4   17   F     1  = A8_1
                   40000k          5    5   F    -1 != A6_0
                   40000k         52   19        -1  = C1_2
                   40000k         29   15   F    -1 != B0_1
                   40000k         33    3         1 != D8_3
                   40000k         27    7   F    -1  = C8_2
                   40000k         17   11   F     0  = D3_0
                   40000k         18   16            -
                   40000k         18   12   F     1  = C7_2
                   40000k         36   10        -1 != A1_1
                   40000k          8    8         0 != D1_4
                   40000k         17   14   F     0 != B5_0
                   40000k         45   20         0 != C7_3
                   40000k         44   18         0  = B5_0
 ! Time = 7113.82s, Average fail depth = 20, Memory usage = 161.5 MB
 !               Branches  Non-fixed    W       Branch decision
